NAME : berlin52.tsp
COMMENT : Optimal tour for berlin52.tsp
TYPE : TOUR
DIMENSION : 52
Total Length: 7983.387066643763
TOUR_SECTION
1
22
32
49
36
35
34
44
16
46
37
39
40
38
48
24
5
15
6
4
25
12
28
27
26
47
13
14
52
11
51
33
43
10
9
8
41
19
45
3
18
31
21
17
42
7
2
30
23
20
50
29
-1
EOF
